2364, 0, 0, 77, 3
2365, 0, 1, 54, 2
2366, 0, 2, 81, 1
2367, 0, 3, 70, 0
2368, 1, 0, 78, 3
2369, 1, 1, 89, 2
2370, 1, 2, 39, 0
2371, 1, 3, 67, 1
2372, 2, 0, 56, 1
2373, 2, 1, 76, 3
2374, 2, 2, 59, 0
2375, 2, 3, 40, 2
2376, 3, 0, 82, 1
2377, 3, 1, 90, 3
2378, 3, 2, 65, 0
2379, 3, 3, 56, 2
